TIME 50
2864
23374
2588
23374
2865
23374
4737
23374
4496
23374
4565
23374
4448
23374
4432
23374
4515
23374
4424
23374
TIME 100
4424
23374
4920
23374
4682
23374
4725
23374
4830
23374
4804
23374
4434
23374
4664
23374
5157
23374
4905
23374
TIME 150
4854
23374
4854
23374
4711
23374
4662
23374
4662
23374
4709
23374
4678
23374
4804
23374
4496
23374
4667
23374
TIME 200
5205
23374
4753
23374
4753
23374
4730
23374
4730
23374
4787
23374
4968
23374
4578
23374
4584
23374
4424
23374
TIME 250
4424
23374
4462
23374
5308
23374
5308
23374
5347
23374
5347
23374
5347
23374
5210
23374
5150
23374
5623
23374
